NAME: random-19-22529
TYPE: TSP
COMMENT: size=19 seed=22529
DIMENSION: 40
EDGE_WEIGHT_TYPE: EUC_2D
NODE_COORD_SECTION
+0 903 660
-0 903 660
+1 676 884
-1 603 244
+2 226 182
-2 327 738
+3 428 852
-3 135 436
+4 343 710
-4 221 13
+5 252 17
-5 18 286
+6 479 20
-6 434 458
+7 980 556
-7 637 317
+8 784 600
-8 289 939
+9 847 294
-9 722 499
+10 988 143
-10 737 860
+11 899 966
-11 802 782
+12 105 196
-12 133 923
+13 200 505
-13 201 313
+14 476 403
-14 869 179
+15 78 512
-15 164 707
+16 213 421
-16 68 364
+17 868 890
-17 482 811
+18 341 88
-18 287 45
+19 574 728
-19 893 804
PRECEDENCE_SECTION
+0 -0
+1 -1
+2 -2
+3 -3
+4 -4
+5 -5
+6 -6
+7 -7
+8 -8
+9 -9
+10 -10
+11 -11
+12 -12
+13 -13
+14 -14
+15 -15
+16 -16
+17 -17
+18 -18
+19 -19
EOF
